p edge 320 320
c 61
e 0 1 1 1
e 1 98 1 4
e 1 5 1 5
e 23 314 2 44
e 28 242 1 52
e 28 182 4 54
e 38 204 1 73
e 57 122 1 100
e 65 88 1 114
e 72 160 1 123
e 82 111 2 141
e 98 294 1 164
e 118 122 2 191
e 147 243 1 222
e 229 308 1 289
e 229 284 37 290
e 246 288 1 298
e 271 289 1 307
e 302 310 1 318
